p edge 61 915
e 5 1
e 5 2
e 5 3
e 5 4
e 6 2
e 6 5
e 7 2
e 7 3
e 7 4
e 7 5
e 8 1
e 8 2
e 8 4
e 9 3
e 9 4
e 9 5
e 9 6
e 9 7
e 9 8
e 10 6
e 10 7
e 10 9
e 11 1
e 11 4
e 11 9
e 12 4
e 12 6
e 12 7
e 12 8
e 12 10
e 13 4
e 13 6
e 13 8
e 13 9
e 13 10
e 13 11
e 14 1
e 14 2
e 14 4
e 14 5
e 14 8
e 14 10
e 14 11
e 14 12
e 14 13
e 15 2
e 15 5
e 15 7
e 15 10
e 15 11
e 16 1
e 16 3
e 16 6
e 16 7
e 16 8
e 16 12
e 16 13
e 17 1
e 17 4
e 17 6
e 17 7
e 17 11
e 17 12
e 17 14
e 17 16
e 18 4
e 18 7
e 18 8
e 18 9
e 18 10
e 18 11
e 18 14
e 18 15
e 18 16
e 18 17
e 19 2
e 19 3
e 19 4
e 19 11
e 19 12
e 19 13
e 19 18
e 20 1
e 20 3
e 20 5
e 20 8
e 20 9
e 20 10
e 20 11
e 20 12
e 20 14
e 20 18
e 21 2
e 21 4
e 21 6
e 21 8
e 21 12
e 21 15
e 21 16
e 22 2
e 22 5
e 22 6
e 22 7
e 22 9
e 22 12
e 22 13
e 22 17
e 22 18
e 22 19
e 23 1
e 23 2
e 23 3
e 23 4
e 23 6
e 23 7
e 23 8
e 23 9
e 23 12
e 23 14
e 23 19
e 23 22
e 24 3
e 24 12
e 24 14
e 24 17
e 24 23
e 25 5
e 25 9
e 25 10
e 25 11
e 25 12
e 25 13
e 25 14
e 25 16
e 25 19
e 25 20
e 25 21
e 25 22
e 25 23
e 26 1
e 26 5
e 26 6
e 26 7
e 26 8
e 26 11
e 26 13
e 26 15
e 26 17
e 26 20
e 26 21
e 26 22
e 26 23
e 26 24
e 27 2
e 27 3
e 27 4
e 27 5
e 27 6
e 27 11
e 27 12
e 27 13
e 27 15
e 27 17
e 27 19
e 27 20
e 27 22
e 27 23
e 27 24
e 27 26
e 28 6
e 28 8
e 28 10
e 28 15
e 28 16
e 28 19
e 28 20
e 28 21
e 28 24
e 28 26
e 28 27
e 29 1
e 29 2
e 29 6
e 29 8
e 29 10
e 29 11
e 29 13
e 29 14
e 29 16
e 29 28
e 30 2
e 30 5
e 30 6
e 30 7
e 30 8
e 30 11
e 30 12
e 30 14
e 30 15
e 30 16
e 30 17
e 30 19
e 30 20
e 30 22
e 30 23
e 30 25
e 30 26
e 30 28
e 31 1
e 31 3
e 31 4
e 31 6
e 31 8
e 31 12
e 31 13
e 31 15
e 31 16
e 31 19
e 31 20
e 31 23
e 31 27
e 31 28
e 32 1
e 32 2
e 32 3
e 32 5
e 32 7
e 32 8
e 32 9
e 32 11
e 32 13
e 32 16
e 32 21
e 32 22
e 32 23
e 32 24
e 32 26
e 32 27
e 32 31
e 33 1
e 33 6
e 33 7
e 33 9
e 33 14
e 33 15
e 33 17
e 33 20
e 33 21
e 33 22
e 33 24
e 33 27
e 33 29
e 33 30
e 34 1
e 34 4
e 34 6
e 34 7
e 34 10
e 34 12
e 34 13
e 34 15
e 34 17
e 34 18
e 34 19
e 34 20
e 34 21
e 34 22
e 34 24
e 34 25
e 34 26
e 34 28
e 34 29
e 34 31
e 35 5
e 35 12
e 35 13
e 35 16
e 35 17
e 35 18
e 35 20
e 35 23
e 35 25
e 35 27
e 35 29
e 35 33
e 36 4
e 36 6
e 36 7
e 36 8
e 36 9
e 36 10
e 36 12
e 36 15
e 36 17
e 36 18
e 36 19
e 36 20
e 36 21
e 36 24
e 36 25
e 36 26
e 36 31
e 36 33
e 36 35
e 37 5
e 37 6
e 37 7
e 37 8
e 37 16
e 37 18
e 37 20
e 37 22
e 37 24
e 37 25
e 37 26
e 37 27
e 37 31
e 37 32
e 37 33
e 37 35
e 37 36
e 38 1
e 38 2
e 38 4
e 38 6
e 38 11
e 38 12
e 38 13
e 38 14
e 38 15
e 38 17
e 38 19
e 38 20
e 38 21
e 38 22
e 38 24
e 38 25
e 38 27
e 38 30
e 38 31
e 38 32
e 38 34
e 38 37
e 39 2
e 39 3
e 39 5
e 39 6
e 39 10
e 39 12
e 39 13
e 39 14
e 39 16
e 39 19
e 39 22
e 39 23
e 39 24
e 39 25
e 39 30
e 39 32
e 39 34
e 39 35
e 39 36
e 39 37
e 40 1
e 40 2
e 40 4
e 40 7
e 40 9
e 40 10
e 40 11
e 40 12
e 40 16
e 40 17
e 40 19
e 40 20
e 40 27
e 40 28
e 40 32
e 40 34
e 40 35
e 40 37
e 41 3
e 41 5
e 41 6
e 41 8
e 41 9
e 41 11
e 41 12
e 41 13
e 41 18
e 41 19
e 41 21
e 41 22
e 41 23
e 41 25
e 41 26
e 41 27
e 41 28
e 41 31
e 41 32
e 41 35
e 41 37
e 41 38
e 42 1
e 42 2
e 42 3
e 42 5
e 42 7
e 42 13
e 42 14
e 42 17
e 42 18
e 42 20
e 42 21
e 42 24
e 42 25
e 42 29
e 42 30
e 42 32
e 42 33
e 42 36
e 42 39
e 42 40
e 42 41
e 43 1
e 43 2
e 43 3
e 43 7
e 43 13
e 43 14
e 43 16
e 43 17
e 43 18
e 43 19
e 43 25
e 43 26
e 43 28
e 43 29
e 43 31
e 43 33
e 43 34
e 43 37
e 43 40
e 44 1
e 44 4
e 44 6
e 44 8
e 44 10
e 44 11
e 44 12
e 44 16
e 44 18
e 44 19
e 44 23
e 44 24
e 44 25
e 44 26
e 44 28
e 44 29
e 44 30
e 44 31
e 44 32
e 44 34
e 44 39
e 44 40
e 44 41
e 44 43
e 45 4
e 45 11
e 45 12
e 45 13
e 45 14
e 45 17
e 45 18
e 45 19
e 45 20
e 45 21
e 45 22
e 45 23
e 45 27
e 45 28
e 45 37
e 45 38
e 45 40
e 45 41
e 45 43
e 46 2
e 46 3
e 46 4
e 46 8
e 46 11
e 46 12
e 46 15
e 46 19
e 46 22
e 46 25
e 46 26
e 46 27
e 46 28
e 46 29
e 46 31
e 46 32
e 46 34
e 46 36
e 46 37
e 46 39
e 46 42
e 46 43
e 46 44
e 46 45
e 47 1
e 47 3
e 47 5
e 47 6
e 47 8
e 47 9
e 47 11
e 47 12
e 47 14
e 47 17
e 47 20
e 47 23
e 47 24
e 47 25
e 47 27
e 47 30
e 47 32
e 47 33
e 47 34
e 47 36
e 47 37
e 47 38
e 47 40
e 47 42
e 47 43
e 48 1
e 48 4
e 48 7
e 48 9
e 48 11
e 48 14
e 48 16
e 48 20
e 48 23
e 48 25
e 48 29
e 48 30
e 48 33
e 48 34
e 48 35
e 48 38
e 48 39
e 48 43
e 48 45
e 48 46
e 48 47
e 49 7
e 49 9
e 49 10
e 49 12
e 49 16
e 49 17
e 49 19
e 49 21
e 49 26
e 49 28
e 49 29
e 49 30
e 49 31
e 49 32
e 49 34
e 49 37
e 49 41
e 49 42
e 49 43
e 49 45
e 49 46
e 49 48
e 50 2
e 50 3
e 50 4
e 50 9
e 50 11
e 50 18
e 50 21
e 50 22
e 50 24
e 50 25
e 50 33
e 50 34
e 50 36
e 50 37
e 50 38
e 50 40
e 50 42
e 50 44
e 50 46
e 50 49
e 51 3
e 51 5
e 51 7
e 51 13
e 51 14
e 51 15
e 51 18
e 51 19
e 51 21
e 51 24
e 51 26
e 51 30
e 51 31
e 51 34
e 51 35
e 51 38
e 51 39
e 51 43
e 51 44
e 51 45
e 51 49
e 52 1
e 52 3
e 52 6
e 52 7
e 52 8
e 52 10
e 52 12
e 52 15
e 52 17
e 52 18
e 52 19
e 52 20
e 52 21
e 52 22
e 52 25
e 52 26
e 52 29
e 52 33
e 52 35
e 52 36
e 52 37
e 52 38
e 52 39
e 52 46
e 52 47
e 52 48
e 52 51
e 53 2
e 53 3
e 53 5
e 53 6
e 53 7
e 53 8
e 53 10
e 53 12
e 53 14
e 53 15
e 53 16
e 53 17
e 53 18
e 53 19
e 53 20
e 53 21
e 53 22
e 53 24
e 53 25
e 53 26
e 53 27
e 53 28
e 53 29
e 53 30
e 53 33
e 53 34
e 53 36
e 53 37
e 53 39
e 53 40
e 53 42
e 53 44
e 53 45
e 53 48
e 53 51
e 53 52
e 54 1
e 54 2
e 54 3
e 54 7
e 54 9
e 54 10
e 54 13
e 54 16
e 54 18
e 54 19
e 54 20
e 54 21
e 54 23
e 54 25
e 54 26
e 54 28
e 54 30
e 54 32
e 54 36
e 54 39
e 54 41
e 54 42
e 54 45
e 54 46
e 54 49
e 54 53
e 55 1
e 55 2
e 55 4
e 55 6
e 55 10
e 55 11
e 55 12
e 55 13
e 55 14
e 55 15
e 55 16
e 55 18
e 55 19
e 55 20
e 55 22
e 55 23
e 55 27
e 55 30
e 55 32
e 55 35
e 55 37
e 55 39
e 55 40
e 55 41
e 55 44
e 55 45
e 55 47
e 55 49
e 55 51
e 56 3
e 56 6
e 56 10
e 56 14
e 56 15
e 56 16
e 56 17
e 56 18
e 56 21
e 56 22
e 56 23
e 56 25
e 56 27
e 56 29
e 56 30
e 56 31
e 56 32
e 56 33
e 56 34
e 56 35
e 56 38
e 56 42
e 56 43
e 56 44
e 56 46
e 56 48
e 56 49
e 56 51
e 57 1
e 57 3
e 57 4
e 57 7
e 57 8
e 57 10
e 57 11
e 57 12
e 57 13
e 57 19
e 57 20
e 57 21
e 57 22
e 57 23
e 57 24
e 57 25
e 57 26
e 57 30
e 57 31
e 57 35
e 57 37
e 57 42
e 57 43
e 57 45
e 57 46
e 57 47
e 57 53
e 57 54
e 57 55
e 58 2
e 58 3
e 58 4
e 58 5
e 58 6
e 58 7
e 58 12
e 58 13
e 58 14
e 58 15
e 58 17
e 58 19
e 58 21
e 58 22
e 58 23
e 58 24
e 58 28
e 58 29
e 58 30
e 58 35
e 58 37
e 58 39
e 58 41
e 58 43
e 58 50
e 58 51
e 58 53
e 59 1
e 59 2
e 59 3
e 59 4
e 59 7
e 59 9
e 59 11
e 59 12
e 59 16
e 59 19
e 59 20
e 59 21
e 59 23
e 59 25
e 59 27
e 59 29
e 59 31
e 59 32
e 59 33
e 59 34
e 59 36
e 59 39
e 59 41
e 59 42
e 59 45
e 59 47
e 59 48
e 59 52
e 59 54
e 59 55
e 59 58
e 60 2
e 60 3
e 60 4
e 60 5
e 60 7
e 60 8
e 60 10
e 60 11
e 60 13
e 60 15
e 60 16
e 60 18
e 60 22
e 60 23
e 60 24
e 60 27
e 60 28
e 60 29
e 60 30
e 60 32
e 60 37
e 60 38
e 60 39
e 60 42
e 60 44
e 60 47
e 60 49
e 60 51
e 60 57
e 60 58
e 61 1
e 61 3
e 61 6
e 61 7
e 61 8
e 61 12
e 61 18
e 61 20
e 61 21
e 61 22
e 61 24
e 61 26
e 61 27
e 61 30
e 61 31
e 61 32
e 61 33
e 61 36
e 61 37
e 61 38
e 61 39
e 61 42
e 61 43
e 61 44
e 61 47
e 61 48
e 61 51
e 61 52
e 61 55
e 61 56
e 61 57
e 61 58
e 61 60
